AES/1_2_8/ssaes_r1-20_c2_rw1_e8_f0_k1-20_aes_1base_box_aes_mc_bidirectional/ExperimentMinisat_r8_k12cnf_2011-12-02-161939/Result
WARNING: for repeatability, setting FPU to use double precision
============================[ Problem Statistics ]=============================
|                                                                             |
|  Number of variables:           688                                         |
|  Number of clauses:          107152                                         |
|  Parse time:                   0.06 s                                       |
|  Eliminated clauses:           0.01 Mb                                      |
|  Simplification time:          3.63 s                                       |
|                                                                             |
=============================[ Search Statistics ]==============================
| Conflicts  |          ORIGINAL         |          LEARNT          | Progress |
|            |    Vars  Clauses Literals |    Limit  Clauses Lit/Cl |          |
================================================================================
|        100 |     448   106544   725536 |    39066      100     17 | 13.954 % |
|        250 |     448   106544   725536 |    42972      250     16 | 13.954 % |
|        475 |     448   106544   725536 |    47270      475     17 | 13.954 % |
|        812 |     448   106544   725536 |    51997      812     18 | 13.954 % |
|       1318 |     448   106544   725536 |    57196     1318     18 | 13.954 % |
|       2077 |     448   106544   725536 |    62916     2077     18 | 13.954 % |
|       3216 |     448   106544   725536 |    69208     3216     17 | 13.954 % |
|       4924 |     448   106544   725536 |    76128     4924     17 | 13.954 % |
|       7486 |     448   106544   725536 |    83741     7486     16 | 13.954 % |
|      11330 |     448   106544   725536 |    92115    11330     16 | 13.954 % |
|      17096 |     448   106544   725536 |   101327    17096     16 | 13.954 % |
|      25745 |     448   106544   725536 |   111460    25745     15 | 13.954 % |
|      38719 |     448   106544   725536 |   122606    38719     15 | 13.954 % |
===============================================================================
restarts              : 130
conflicts             : 45249          (835 /sec)
decisions             : 48903          (0.00 % random) (902 /sec)
propagations          : 11214906       (206868 /sec)
conflict literals     : 655316         (51.01 % deleted)
Memory used           : 20.00 MB
CPU time              : 54.2128 s

SATISFIABLE
